DIMENSION :14
NODE_COORD_SECTION
1 90.11912401082938 -25.999771587802883
2 18.632623453018397 92.92048626679752
3 49.95994981853403 98.12778053099254
4 32.3557873707347 -34.27221823536877
5 34.595466122795244 -51.97451263954911
6 -57.86624291343456 61.27428382121377
7 -7.65677778445648 -85.72918737510409
8 -92.40218028374305 -11.747605785492254
9 93.3208143747319 -59.571238429809895
10 65.39770040529265 -40.93135571745263
11 14.791335396349226 56.15240593550101
12 29.639164929290644 -56.39030423685292
13 -84.9618035011779 41.12392650255566
14 82.23349384192383 38.068175095326836
EOF
